p cnf 21 52
a 5 15 0
e 1 2 3 4 6 7 8 9 10 11 12 13 14 16 17 18 19 20 21 0
-2 3 -4 0
2 -3 -4 0
-2 -3 4 0
2 3 4 0
1 4 -5 0
-1 -4 -5 0
1 -4 5 0
-1 4 5 0
7 -3 0
7 6 0
3 -6 -7 0
8 5 0
8 -7 0
-5 7 -8 0
-10 9 0
-10 -6 0
-9 6 10 0
12 -3 0
12 -11 0
3 11 -12 0
13 -11 0
13 -12 0
11 12 -13 0
15 -2 0
15 14 0
2 -14 -15 0
13 -15 -16 0
-13 15 -16 0
13 15 16 0
-13 -15 16 0
-10 16 -17 0
10 -16 -17 0
-10 -16 17 0
10 16 17 0
-18 6 -19 0
18 -6 -19 0
-18 -6 19 0
18 6 19 0
-17 -19 -20 0
17 19 -20 0
-17 19 20 0
17 -19 20 0
8 20 -21 0
-8 -20 -21 0
8 -20 21 0
-8 20 21 0
10 6 13 9 0
7 -19 -18 -5 -9 8 0
-17 -15 -5 -16 0
-7 -4 -11 0
-10 -3 -5 -12 0
21 0
